(set-info :source |printed by MathSAT|)
(declare-fun |!{$(in_main#0)<N>}| () Int)
(declare-fun |!{$(in_main#0)<N>}.next| () Int)
(declare-fun |!{$(in_main#0)<&array>}| () Int)
(declare-fun |!{$(in_main#0)<&array>}.next| () Int)
(declare-fun |!{$(in_main#0)<k>}| () Int)
(declare-fun |!{$(in_main#0)<k>}.next| () Int)
(declare-fun |!{%memaddr}| () Int)
(declare-fun |!{%memaddr}.next| () Int)
(declare-fun |!{%mem.0}| () (Array Int Int))
(declare-fun |!{%mem.0}.next| () (Array Int Int))
(declare-fun |!{$(in_main#0)<$(in___VERIFIER_nondet_int#1)<h#<__VERIFIER_nondet_int.return>>>}| () Int)
(declare-fun |!{$(in_main#0)<$(in___VERIFIER_nondet_int#3)<h#<__VERIFIER_nondet_int.return>>>}| () Int)
(declare-fun |!{$(in_main#0)<$(in___VERIFIER_nondet_int#4)<h#<__VERIFIER_nondet_int.return>>>}| () Int)
(declare-fun |!{$(in_main#0)<$(in_rec_array_find#5)<$temp.1>>}| () Int)
(declare-fun |!{$(in_main#0)<$(in_rec_array_find#5)<$tmp>>}| () Int)
(declare-fun |!{$(in_main#0)<$(in_rec_array_find#5)<$(in_rec_array_find#0)<$temp.1>>>}| () Int)
(declare-fun |!{$(in_main#0)<$(in_rec_array_find#5)<$(in_rec_array_find#0)<$tmp>>>}| () Int)
(declare-fun !pc () Int)
(declare-fun !pc.next () Int)
(declare-fun rec_array_find<0> (Int Int Int) Int)
(declare-fun |%{$(in_main#0)<$(in_rec_array_find#5)<$(in_rec_array_find#0)<$temp.1>>>}#3| () Int)
(declare-fun |%{$(in_main#0)<$(in_rec_array_find#5)<$(in_rec_array_find#0)<$tmp>>>}#3| () Int)
(declare-fun |%{$(in_main#0)<$(in_rec_array_find#5)<$(in_rec_array_find#0)<rec_array_find.return>>>}#3| () Int)
(declare-fun |%{$(in_main#0)<$(in_rec_array_find#5)<$temp.1>>}#3| () Int)
(declare-fun |%{$(in_main#0)<$(in_rec_array_find#5)<$tmp>>}#3| () Int)
(declare-fun |%{$(in_main#0)<$(in_rec_array_find#5)<rec_array_find.return>>}#3| () Int)
(define-fun .def_54 () Int (! !pc :next !pc.next))
(define-fun .def_57 () Bool (! (= .def_54 2) :init true))
(define-fun .def_239 () Bool (= .def_54 50))
(define-fun .def_96 () Bool (= !pc.next 0))
(define-fun .def_246 () Bool (and .def_96 .def_239))
(define-fun .def_10 () Int (! |!{$(in_main#0)<&array>}| :next |!{$(in_main#0)<&array>}.next|))
(define-fun .def_203 () Int (+ .def_10 |%{$(in_main#0)<$(in_rec_array_find#5)<rec_array_find.return>>}#3|))
(define-fun .def_16 () (Array Int Int) (! |!{%mem.0}| :next |!{%mem.0}.next|))
(define-fun .def_204 () Int (select .def_16 .def_203))
(define-fun .def_205 () Bool (= |!{$(in_main#0)<$(in___VERIFIER_nondet_int#4)<h#<__VERIFIER_nondet_int.return>>>}| .def_204))
(define-fun .def_206 () Int (ite .def_205 1 0))
(define-fun .def_207 () Bool (= .def_206 0))
(define-fun .def_208 () Bool (not .def_207))
(define-fun .def_198 () Bool (= |%{$(in_main#0)<$(in_rec_array_find#5)<rec_array_find.return>>}#3| (- 1)))
(define-fun .def_202 () Bool (not .def_198))
(define-fun .def_212 () Bool (and .def_202 .def_208))
(define-fun .def_217 () Bool (or .def_198 .def_212))
(define-fun .def_14 () Int (! |!{%memaddr}| :next |!{%memaddr}.next|))
(define-fun .def_91 () Bool (= .def_14 |!{%memaddr}.next|))
(define-fun .def_12 () Int (! |!{$(in_main#0)<k>}| :next |!{$(in_main#0)<k>}.next|))
(define-fun .def_89 () Bool (= .def_12 |!{$(in_main#0)<k>}.next|))
(define-fun .def_87 () Bool (= .def_10 |!{$(in_main#0)<&array>}.next|))
(define-fun .def_8 () Int (! |!{$(in_main#0)<N>}| :next |!{$(in_main#0)<N>}.next|))
(define-fun .def_86 () Bool (= .def_8 |!{$(in_main#0)<N>}.next|))
(define-fun .def_88 () Bool (and .def_86 .def_87))
(define-fun .def_90 () Bool (and .def_88 .def_89))
(define-fun .def_92 () Bool (and .def_90 .def_91))
(define-fun .def_79 () Bool (= .def_16 |!{%mem.0}.next|))
(define-fun .def_93 () Bool (and .def_79 .def_92))
(define-fun .def_236 () Bool (and .def_93 .def_217))
(define-fun .def_174 () Bool (= |!{$(in_main#0)<$(in_rec_array_find#5)<$temp.1>>}| |%{$(in_main#0)<$(in_rec_array_find#5)<$temp.1>>}#3|))
(define-fun .def_103 () Bool (<= .def_8 0))
(define-fun .def_196 () Bool (and .def_103 .def_174))
(define-fun .def_180 () Bool (= |!{$(in_main#0)<$(in_rec_array_find#5)<$tmp>>}| |%{$(in_main#0)<$(in_rec_array_find#5)<$tmp>>}#3|))
(define-fun .def_197 () Bool (and .def_180 .def_196))
(define-fun .def_199 () Bool (and .def_197 .def_198))
(define-fun .def_189 () Bool (= |%{$(in_main#0)<$(in_rec_array_find#5)<$(in_rec_array_find#0)<rec_array_find.return>>>}#3| |%{$(in_main#0)<$(in_rec_array_find#5)<rec_array_find.return>>}#3|))
(define-fun .def_181 () Bool (= |%{$(in_main#0)<$(in_rec_array_find#5)<$(in_rec_array_find#0)<rec_array_find.return>>>}#3| |%{$(in_main#0)<$(in_rec_array_find#5)<$tmp>>}#3|))
(define-fun .def_175 () Bool (= |%{$(in_main#0)<$(in_rec_array_find#5)<$(in_rec_array_find#0)<rec_array_find.return>>>}#3| |%{$(in_main#0)<$(in_rec_array_find#5)<$temp.1>>}#3|))
(define-fun .def_164 () Bool (= |%{$(in_main#0)<$(in_rec_array_find#5)<$(in_rec_array_find#0)<rec_array_find.return>>>}#3| (- 1)))
(define-fun .def_134 () Bool (= |!{$(in_main#0)<$(in_rec_array_find#5)<$(in_rec_array_find#0)<$temp.1>>>}| |%{$(in_main#0)<$(in_rec_array_find#5)<$(in_rec_array_find#0)<$temp.1>>>}#3|))
(define-fun .def_113 () Bool (<= .def_8 1))
(define-fun .def_162 () Bool (and .def_113 .def_134))
(define-fun .def_140 () Bool (= |!{$(in_main#0)<$(in_rec_array_find#5)<$(in_rec_array_find#0)<$tmp>>>}| |%{$(in_main#0)<$(in_rec_array_find#5)<$(in_rec_array_find#0)<$tmp>>>}#3|))
(define-fun .def_163 () Bool (and .def_140 .def_162))
(define-fun .def_165 () Bool (and .def_163 .def_164))
(define-fun .def_122 () Int (+ .def_8 (- 2)))
(define-fun .def_123 () Int (rec_array_find<0> .def_10 |!{$(in_main#0)<$(in___VERIFIER_nondet_int#4)<h#<__VERIFIER_nondet_int.return>>>}| .def_122))
(define-fun .def_151 () Bool (= .def_123 |%{$(in_main#0)<$(in_rec_array_find#5)<$(in_rec_array_find#0)<rec_array_find.return>>>}#3|))
(define-fun .def_141 () Bool (= .def_123 |%{$(in_main#0)<$(in_rec_array_find#5)<$(in_rec_array_find#0)<$tmp>>>}#3|))
(define-fun .def_135 () Bool (= .def_123 |%{$(in_main#0)<$(in_rec_array_find#5)<$(in_rec_array_find#0)<$temp.1>>>}#3|))
(define-fun .def_108 () Int (+ .def_8 .def_10))
(define-fun .def_118 () Int (+ .def_108 (- 2)))
(define-fun .def_119 () Int (select .def_16 .def_118))
(define-fun .def_120 () Bool (= |!{$(in_main#0)<$(in___VERIFIER_nondet_int#4)<h#<__VERIFIER_nondet_int.return>>>}| .def_119))
(define-fun .def_121 () Bool (not .def_120))
(define-fun .def_137 () Bool (and .def_121 .def_135))
(define-fun .def_143 () Bool (and .def_137 .def_141))
(define-fun .def_153 () Bool (and .def_143 .def_151))
(define-fun .def_148 () Int (* (- 1) |%{$(in_main#0)<$(in_rec_array_find#5)<$(in_rec_array_find#0)<rec_array_find.return>>>}#3|))
(define-fun .def_149 () Int (+ .def_8 .def_148))
(define-fun .def_150 () Bool (= .def_149 2))
(define-fun .def_136 () Bool (and .def_120 .def_134))
(define-fun .def_142 () Bool (and .def_136 .def_140))
(define-fun .def_152 () Bool (and .def_142 .def_150))
(define-fun .def_154 () Bool (or .def_152 .def_153))
(define-fun .def_114 () Bool (not .def_113))
(define-fun .def_155 () Bool (and .def_114 .def_154))
(define-fun .def_166 () Bool (or .def_155 .def_165))
(define-fun .def_109 () Int (+ .def_108 (- 1)))
(define-fun .def_110 () Int (select .def_16 .def_109))
(define-fun .def_111 () Bool (= |!{$(in_main#0)<$(in___VERIFIER_nondet_int#4)<h#<__VERIFIER_nondet_int.return>>>}| .def_110))
(define-fun .def_112 () Bool (not .def_111))
(define-fun .def_167 () Bool (and .def_112 .def_166))
(define-fun .def_177 () Bool (and .def_167 .def_175))
(define-fun .def_183 () Bool (and .def_177 .def_181))
(define-fun .def_191 () Bool (and .def_183 .def_189))
(define-fun .def_186 () Int (* (- 1) |%{$(in_main#0)<$(in_rec_array_find#5)<rec_array_find.return>>}#3|))
(define-fun .def_187 () Int (+ .def_8 .def_186))
(define-fun .def_188 () Bool (= .def_187 1))
(define-fun .def_176 () Bool (and .def_111 .def_174))
(define-fun .def_182 () Bool (and .def_176 .def_180))
(define-fun .def_190 () Bool (and .def_182 .def_188))
(define-fun .def_192 () Bool (or .def_190 .def_191))
(define-fun .def_104 () Bool (not .def_103))
(define-fun .def_193 () Bool (and .def_104 .def_192))
(define-fun .def_200 () Bool (or .def_193 .def_199))
(define-fun .def_237 () Bool (and .def_200 .def_236))
(define-fun .def_98 () Bool (<= .def_8 .def_12))
(define-fun .def_238 () Bool (and .def_98 .def_237))
(define-fun .def_247 () Bool (and .def_238 .def_246))
(define-fun .def_242 () Bool (= !pc.next 173))
(define-fun .def_243 () Bool (and .def_239 .def_242))
(define-fun .def_228 () Bool (and .def_86 .def_207))
(define-fun .def_229 () Bool (and .def_87 .def_228))
(define-fun .def_230 () Bool (and .def_89 .def_229))
(define-fun .def_231 () Bool (and .def_91 .def_230))
(define-fun .def_232 () Bool (and .def_79 .def_231))
(define-fun .def_233 () Bool (and .def_202 .def_232))
(define-fun .def_234 () Bool (and .def_200 .def_233))
(define-fun .def_235 () Bool (and .def_98 .def_234))
(define-fun .def_244 () Bool (and .def_235 .def_243))
(define-fun .def_83 () Bool (= !pc.next 50))
(define-fun .def_240 () Bool (and .def_83 .def_239))
(define-fun .def_100 () Int (+ .def_10 .def_12))
(define-fun .def_101 () (Array Int Int) (store .def_16 .def_100 |!{$(in_main#0)<$(in___VERIFIER_nondet_int#3)<h#<__VERIFIER_nondet_int.return>>>}|))
(define-fun .def_225 () Bool (= |!{%mem.0}.next| .def_101))
(define-fun .def_220 () Int (* (- 1) |!{$(in_main#0)<k>}.next|))
(define-fun .def_221 () Int (+ .def_12 .def_220))
(define-fun .def_222 () Bool (= .def_221 (- 1)))
(define-fun .def_223 () Bool (and .def_88 .def_222))
(define-fun .def_224 () Bool (and .def_91 .def_223))
(define-fun .def_226 () Bool (and .def_224 .def_225))
(define-fun .def_99 () Bool (not .def_98))
(define-fun .def_227 () Bool (and .def_99 .def_226))
(define-fun .def_241 () Bool (and .def_227 .def_240))
(define-fun .def_245 () Bool (or .def_241 .def_244))
(define-fun .def_248 () Bool (or .def_245 .def_247))
(define-fun .def_84 () Bool (and .def_57 .def_83))
(define-fun .def_77 () Bool (= |!{%memaddr}.next| 2))
(define-fun .def_75 () Bool (= |!{$(in_main#0)<k>}.next| 0))
(define-fun .def_73 () Bool (= |!{$(in_main#0)<&array>}.next| 1))
(define-fun .def_72 () Bool (= |!{$(in_main#0)<N>}.next| |!{$(in_main#0)<$(in___VERIFIER_nondet_int#1)<h#<__VERIFIER_nondet_int.return>>>}|))
(define-fun .def_74 () Bool (and .def_72 .def_73))
(define-fun .def_76 () Bool (and .def_74 .def_75))
(define-fun .def_78 () Bool (and .def_76 .def_77))
(define-fun .def_80 () Bool (and .def_78 .def_79))
(define-fun .def_67 () Bool (<= |!{$(in_main#0)<$(in___VERIFIER_nondet_int#1)<h#<__VERIFIER_nondet_int.return>>>}| 0))
(define-fun .def_68 () Bool (not .def_67))
(define-fun .def_69 () Int (ite .def_68 1 0))
(define-fun .def_70 () Bool (= .def_69 0))
(define-fun .def_71 () Bool (not .def_70))
(define-fun .def_81 () Bool (and .def_71 .def_80))
(define-fun .def_85 () Bool (and .def_81 .def_84))
(define-fun .def_249 () Bool (! (or .def_85 .def_248) :trans true))
(define-fun .def_95 () Bool (= .def_54 173))
(define-fun .def_250 () Bool (! (not .def_95) :invar-property 0 :invar-property-name ||))
(assert true)
